TCS_Benchmarks/redos_fix/regexlib1_output_distinct_3210_3209_3_0.txt
[ \-0-9A-Z.a-z]{6,}
([ \-0-9A-Z.a-z]{6,})(([ ]+|[xX]|(i:ext[\.]?)){1,2})
([ ]+|[xX]|(i:ext[\.]?)){1,2}